[2026-03-24T00:34:30.160Z] Pipeline "set_set_set_s009_g001" → 2026_03_24_00_34_30_set_set_set_s009_g001_max.sol
Set parameter WLSAccessID
Set parameter WLSSecret
Set parameter LicenseID to value 2792458
Set parameter LogFile to value "gurobi.log"
Using license file /root/gurobi.lic
Academic license 2792458 - for non-commercial use only - registered to an___@studenti.unipg.it

Gurobi Optimizer version 13.0.1 build v13.0.1rc0 (linux64 - "Ubuntu 24.04.4 LTS")
Copyright (c) 2026, Gurobi Optimization, LLC

Warning: Duplicate section found (read 'binary') - Is a variable name equal to an LP file format keyword?
Warning: Duplicate section found (read 'binary') - Is a variable name equal to an LP file format keyword?
Warning: Duplicate section found (read 'binary') - Is a variable name equal to an LP file format keyword?
Warning: Duplicate section found (read 'binary') - Is a variable name equal to an LP file format keyword?
Warning: Duplicate section found (read 'binary') - Is a variable name equal to an LP file format keyword?
Warning: Duplicate section found (read 'binary') - Is a variable name equal to an LP file format keyword?
Warning: Duplicate section found (read 'binary') - Is a variable name equal to an LP file format keyword?
Warning: Duplicate section found (read 'binary') - Is a variable name equal to an LP file format keyword?
Warning: Duplicate section found (read 'binary') - Is a variable name equal to an LP file format keyword?
Warning: Duplicate section found (read 'binary') - Is a variable name equal to an LP file format keyword?
Warning: Further warnings of this type will be omitted.
Read LP format model from file /root/bgw/data/uploads/2026_03_24_00_34_30_set_set_set_s009_g001_max.lp
Reading time = 0.00 seconds
: 995 rows, 158 columns, 2907 nonzeros

Using Gurobi shared library /opt/gurobi1301/linux64/lib/libgurobi.so.13.0.1

CPU model: AMD EPYC-Genoa Processor, instruction set [SSE2|AVX|AVX2|AVX512]
Thread count: 16 physical cores, 16 logical processors, using up to 16 threads

Academic license 2792458 - for non-commercial use only - registered to an___@studenti.unipg.it
Optimize a model with 995 rows, 158 columns and 2907 nonzeros (Max)
Model fingerprint: 0x3bf5d2dd
Model has 9 linear objective coefficients
Variable types: 23 continuous, 135 integer (135 binary)
Coefficient statistics:
  Matrix range     [1e+00, 2e+01]
  Objective range  [1e+00, 1e+00]
  Bounds range     [1e+00, 1e+00]
  RHS range        [1e+00, 2e+01]

Found heuristic solution: objective 9.0000000
Presolve removed 228 rows and 43 columns
Presolve time: 0.01s
Presolved: 767 rows, 115 columns, 2400 nonzeros
Variable types: 0 continuous, 115 integer (106 binary)
Found heuristic solution: objective 15.0000000

Root relaxation: objective 3.900000e+01, 146 iterations, 0.01 seconds (0.00 work units)

    Nodes    |    Current Node    |     Objective Bounds      |     Work
 Expl Unexpl |  Obj  Depth IntInf | Incumbent    BestBd   Gap | It/Node Time

     0     0   39.00000    0   33   15.00000   39.00000   160%     -    0s
H    0     0                      18.0000000   39.00000   117%     -    0s
H    0     0                      19.0000000   39.00000   105%     -    0s
H    0     0                      22.0000000   39.00000  77.3%     -    0s
H    0     0                      23.0000000   39.00000  69.6%     -    0s
     0     0   39.00000    0   41   23.00000   39.00000  69.6%     -    0s
     0     0   39.00000    0   41   23.00000   39.00000  69.6%     -    0s
     0     0   39.00000    0   40   23.00000   39.00000  69.6%     -    0s
H    0     0                      24.0000000   39.00000  62.5%     -    0s
     0     0   39.00000    0   39   24.00000   39.00000  62.5%     -    0s
     0     0   39.00000    0   38   24.00000   39.00000  62.5%     -    0s
     0     0   39.00000    0   42   24.00000   39.00000  62.5%     -    0s
     0     0   39.00000    0   40   24.00000   39.00000  62.5%     -    0s
H    0     0                      25.0000000   38.83333  55.3%     -    0s
     0     0   38.79167    0   42   25.00000   38.79167  55.2%     -    0s
     0     0   38.79167    0   39   25.00000   38.79167  55.2%     -    0s
     0     0   38.00000    0   39   25.00000   38.00000  52.0%     -    0s
     0     0   38.00000    0   38   25.00000   38.00000  52.0%     -    0s
     0     0   38.00000    0   38   25.00000   38.00000  52.0%     -    0s
     0     0   38.00000    0   38   25.00000   38.00000  52.0%     -    0s
     0     2   38.00000    0   38   25.00000   38.00000  52.0%     -    0s

Cutting planes:
  Gomory: 1
  Cover: 37
  Inf proof: 55
  Zero half: 1

Explored 5620 nodes (212539 simplex iterations) in 0.86 seconds (1.05 work units)
Thread count was 16 (of 16 available processors)

Solution count 8: 25 24 23 ... 9

Optimal solution found (tolerance 1.00e-04)
Best objective 2.500000000000e+01, best bound 2.500000000000e+01, gap 0.0000%

Wrote result file '/root/bgw/data/results/2026_03_24_00_34_30_set_set_set_s009_g001_max.sol'

